p edge 300 1800
e 1 43
e 1 191
e 1 197
e 1 241
e 1 277
e 1 285
e 2 8
e 2 37
e 2 46
e 2 80
e 2 157
e 2 177
e 3 19
e 3 149
e 3 173
e 3 200
e 3 213
e 3 288
e 4 10
e 4 43
e 4 111
e 4 136
e 4 160
e 4 237
e 5 7
e 5 14
e 5 73
e 5 202
e 5 225
e 5 288
e 6 22
e 6 24
e 6 56
e 6 120
e 6 122
e 6 200
e 7 105
e 7 140
e 7 141
e 7 141
e 7 168
e 7 212
e 8 6
e 8 51
e 8 85
e 8 228
e 8 229
e 8 248
e 9 23
e 9 59
e 9 121
e 9 125
e 9 127
e 9 270
e 10 31
e 10 120
e 10 182
e 10 285
e 10 293
e 10 297
e 11 26
e 11 51
e 11 73
e 11 264
e 11 273
e 11 286
e 12 41
e 12 99
e 12 123
e 12 137
e 12 200
e 12 243
e 13 25
e 13 99
e 13 114
e 13 150
e 13 291
e 13 291
e 14 21
e 14 82
e 14 133
e 14 137
e 14 210
e 14 220
e 15 5
e 15 6
e 15 56
e 15 180
e 15 195
e 15 270
e 16 56
e 16 151
e 16 161
e 16 177
e 16 242
e 16 274
e 17 143
e 17 173
e 17 180
e 17 185
e 17 194
e 17 206
e 18 14
e 18 62
e 18 68
e 18 105
e 18 199
e 18 222
e 19 34
e 19 127
e 19 160
e 19 203
e 19 245
e 19 255
e 20 43
e 20 114
e 20 122
e 20 203
e 20 207
e 20 285
e 21 109
e 21 169
e 21 173
e 21 229
e 21 290
e 21 294
e 22 37
e 22 109
e 22 199
e 22 254
e 22 259
e 22 266
e 23 4
e 23 111
e 23 134
e 23 134
e 23 249
e 23 249
e 24 55
e 24 68
e 24 69
e 24 91
e 24 247
e 24 291
e 25 106
e 25 130
e 25 198
e 25 201
e 25 247
e 25 289
e 26 64
e 26 104
e 26 134
e 26 150
e 26 191
e 26 207
e 27 54
e 27 187
e 27 198
e 27 202
e 27 226
e 27 293
e 28 8
e 28 58
e 28 153
e 28 176
e 28 189
e 28 197
e 29 15
e 29 22
e 29 61
e 29 130
e 29 137
e 29 190
e 30 51
e 30 61
e 30 105
e 30 128
e 30 129
e 30 241
e 31 3
e 31 135
e 31 195
e 31 249
e 31 257
e 31 298
e 32 3
e 32 44
e 32 73
e 32 200
e 32 229
e 32 240
e 33 4
e 33 48
e 33 99
e 33 139
e 33 201
e 33 282
e 34 36
e 34 135
e 34 140
e 34 252
e 34 260
e 34 271
e 35 16
e 35 28
e 35 30
e 35 93
e 35 100
e 35 205
e 36 50
e 36 144
e 36 180
e 36 186
e 36 230
e 36 265
e 37 20
e 37 72
e 37 101
e 37 178
e 37 236
e 37 239
e 38 30
e 38 89
e 38 150
e 38 168
e 38 190
e 38 193
e 39 96
e 39 130
e 39 144
e 39 145
e 39 191
e 39 281
e 40 27
e 40 70
e 40 107
e 40 141
e 40 142
e 40 283
e 41 33
e 41 43
e 41 61
e 41 118
e 41 152
e 41 162
e 42 10
e 42 69
e 42 82
e 42 91
e 42 124
e 42 162
e 43 41
e 43 78
e 43 226
e 43 235
e 43 268
e 43 297
e 44 15
e 44 91
e 44 108
e 44 125
e 44 227
e 44 258
e 45 69
e 45 106
e 45 159
e 45 166
e 45 213
e 45 287
e 46 17
e 46 101
e 46 127
e 46 182
e 46 247
e 46 295
e 47 79
e 47 153
e 47 191
e 47 196
e 47 230
e 47 247
e 48 52
e 48 71
e 48 115
e 48 132
e 48 181
e 48 194
e 49 50
e 49 115
e 49 128
e 49 158
e 49 213
e 49 287
e 50 13
e 50 56
e 50 213
e 50 280
e 50 283
e 50 291
e 51 75
e 51 111
e 51 156
e 51 170
e 51 190
e 51 252
e 52 21
e 52 34
e 52 42
e 52 88
e 52 89
e 52 157
e 53 57
e 53 71
e 53 143
e 53 167
e 53 185
e 53 239
e 54 7
e 54 37
e 54 50
e 54 118
e 54 138
e 54 161
e 55 18
e 55 19
e 55 46
e 55 106
e 55 246
e 55 260
e 56 74
e 56 98
e 56 138
e 56 159
e 56 174
e 56 184
e 57 8
e 57 9
e 57 58
e 57 79
e 57 190
e 57 284
e 58 1
e 58 78
e 58 130
e 58 172
e 58 215
e 58 260
e 59 126
e 59 175
e 59 219
e 59 231
e 59 239
e 59 289
e 60 94
e 60 158
e 60 159
e 60 182
e 60 234
e 60 259
e 61 71
e 61 140
e 61 200
e 61 208
e 61 218
e 61 270
e 62 23
e 62 74
e 62 95
e 62 164
e 62 248
e 62 254
e 63 31
e 63 93
e 63 232
e 63 263
e 63 283
e 63 291
e 64 16
e 64 68
e 64 92
e 64 222
e 64 258
e 64 258
e 65 152
e 65 192
e 65 216
e 65 232
e 65 248
e 65 275
e 66 3
e 66 55
e 66 122
e 66 138
e 66 141
e 66 231
e 67 17
e 67 17
e 67 99
e 67 126
e 67 182
e 67 299
e 68 5
e 68 40
e 68 84
e 68 203
e 68 232
e 68 297
e 69 19
e 69 22
e 69 39
e 69 90
e 69 271
e 69 281
e 70 86
e 70 105
e 70 113
e 70 163
e 70 178
e 70 280
e 71 108
e 71 184
e 71 205
e 71 237
e 71 250
e 71 277
e 72 58
e 72 100
e 72 112
e 72 189
e 72 245
e 72 260
e 73 19
e 73 161
e 73 201
e 73 228
e 73 237
e 73 251
e 74 6
e 74 45
e 74 64
e 74 85
e 74 112
e 74 250
e 75 6
e 75 76
e 75 92
e 75 135
e 75 156
e 75 282
e 76 94
e 76 115
e 76 219
e 76 269
e 76 272
e 76 290
e 77 18
e 77 83
e 77 83
e 77 106
e 77 123
e 77 187
e 78 28
e 78 75
e 78 94
e 78 194
e 78 227
e 78 231
e 79 15
e 79 144
e 79 154
e 79 175
e 79 185
e 79 187
e 80 35
e 80 78
e 80 163
e 80 180
e 80 214
e 80 276
e 81 33
e 81 111
e 81 112
e 81 189
e 81 220
e 81 295
e 82 18
e 82 36
e 82 38
e 82 147
e 82 170
e 82 292
e 83 74
e 83 129
e 83 144
e 83 146
e 83 226
e 83 254
e 84 19
e 84 37
e 84 92
e 84 111
e 84 218
e 84 236
e 85 31
e 85 60
e 85 156
e 85 159
e 85 191
e 85 264
e 86 34
e 86 45
e 86 72
e 86 205
e 86 262
e 86 286
e 87 6
e 87 152
e 87 154
e 87 205
e 87 274
e 87 290
e 88 64
e 88 169
e 88 204
e 88 207
e 88 251
e 88 286
e 89 21
e 89 50
e 89 68
e 89 179
e 89 196
e 89 240
e 90 15
e 90 27
e 90 82
e 90 97
e 90 164
e 90 178
e 91 61
e 91 156
e 91 237
e 91 266
e 91 270
e 91 271
e 92 19
e 92 33
e 92 43
e 92 72
e 92 112
e 92 197
e 93 22
e 93 80
e 93 171
e 93 173
e 93 188
e 93 285
e 94 41
e 94 53
e 94 184
e 94 228
e 94 235
e 94 273
e 95 36
e 95 48
e 95 131
e 95 151
e 95 264
e 95 299
e 96 15
e 96 31
e 96 74
e 96 223
e 96 238
e 96 260
e 97 131
e 97 133
e 97 136
e 97 148
e 97 225
e 97 283
e 98 5
e 98 99
e 98 155
e 98 187
e 98 218
e 98 244
e 99 63
e 99 141
e 99 163
e 99 179
e 99 221
e 99 260
e 100 42
e 100 149
e 100 184
e 100 215
e 100 224
e 100 225
e 101 22
e 101 55
e 101 136
e 101 155
e 101 173
e 101 223
e 102 80
e 102 148
e 102 166
e 102 177
e 102 258
e 102 272
e 103 70
e 103 102
e 103 104
e 103 119
e 103 254
e 103 256
e 104 108
e 104 160
e 104 207
e 104 229
e 104 234
e 104 293
e 105 85
e 105 98
e 105 109
e 105 121
e 105 175
e 105 235
e 106 129
e 106 199
e 106 216
e 106 277
e 106 292
e 106 299
e 107 60
e 107 72
e 107 190
e 107 207
e 107 253
e 107 289
e 108 17
e 108 40
e 108 65
e 108 110
e 108 125
e 108 211
e 109 1
e 109 23
e 109 154
e 109 179
e 109 210
e 109 282
e 110 68
e 110 90
e 110 117
e 110 127
e 110 139
e 110 215
e 111 33
e 111 48
e 111 132
e 111 186
e 111 188
e 111 224
e 112 76
e 112 80
e 112 123
e 112 151
e 112 182
e 112 204
e 113 151
e 113 155
e 113 214
e 113 232
e 113 279
e 113 291
e 114 4
e 114 38
e 114 58
e 114 182
e 114 195
e 114 282
e 115 21
e 115 88
e 115 183
e 115 234
e 115 265
e 115 282
e 116 5
e 116 23
e 116 197
e 116 216
e 116 226
e 116 233
e 117 52
e 117 148
e 117 233
e 117 235
e 117 293
e 117 298
e 118 9
e 118 19
e 118 82
e 118 107
e 118 116
e 118 158
e 119 98
e 119 163
e 119 178
e 119 184
e 119 196
e 119 200
e 120 5
e 120 77
e 120 78
e 120 88
e 120 110
e 120 155
e 121 22
e 121 67
e 121 77
e 121 133
e 121 164
e 121 183
e 122 86
e 122 112
e 122 161
e 122 234
e 122 283
e 122 287
e 123 91
e 123 115
e 123 131
e 123 184
e 123 186
e 123 288
e 124 17
e 124 77
e 124 181
e 124 193
e 124 221
e 124 226
e 125 39
e 125 91
e 125 126
e 125 140
e 125 229
e 125 237
e 126 10
e 126 29
e 126 61
e 126 138
e 126 144
e 126 219
e 127 22
e 127 56
e 127 89
e 127 93
e 127 211
e 127 283
e 128 54
e 128 71
e 128 126
e 128 147
e 128 216
e 128 238
e 129 58
e 129 109
e 129 123
e 129 184
e 129 251
e 129 292
e 130 11
e 130 28
e 130 127
e 130 270
e 130 272
e 130 298
e 131 40
e 131 52
e 131 111
e 131 229
e 131 250
e 131 285
e 132 11
e 132 99
e 132 102
e 132 178
e 132 289
e 132 294
e 133 12
e 133 32
e 133 53
e 133 91
e 133 200
e 133 277
e 134 58
e 134 167
e 134 178
e 134 192
e 134 288
e 134 300
e 135 42
e 135 53
e 135 169
e 135 218
e 135 236
e 135 295
e 136 6
e 136 99
e 136 196
e 136 246
e 136 277
e 136 285
e 137 9
e 137 27
e 137 29
e 137 29
e 137 167
e 137 255
e 138 56
e 138 59
e 138 173
e 138 179
e 138 294
e 138 298
e 139 126
e 139 146
e 139 175
e 139 198
e 139 201
e 139 290
e 140 81
e 140 113
e 140 128
e 140 222
e 140 283
e 140 284
e 141 22
e 141 35
e 141 35
e 141 140
e 141 183
e 141 294
e 142 32
e 142 58
e 142 60
e 142 162
e 142 186
e 142 255
e 143 17
e 143 63
e 143 173
e 143 242
e 143 253
e 143 259
e 144 63
e 144 118
e 144 183
e 144 217
e 144 251
e 144 300
e 145 7
e 145 16
e 145 52
e 145 55
e 145 164
e 145 174
e 146 63
e 146 92
e 146 164
e 146 265
e 146 273
e 146 291
e 147 29
e 147 60
e 147 88
e 147 138
e 147 138
e 147 172
e 148 42
e 148 57
e 148 81
e 148 88
e 148 191
e 148 220
e 149 57
e 149 212
e 149 253
e 149 266
e 149 270
e 149 271
e 150 84
e 150 152
e 150 162
e 150 176
e 150 213
e 150 218
e 151 109
e 151 139
e 151 201
e 151 207
e 151 265
e 151 268
e 152 76
e 152 105
e 152 125
e 152 190
e 152 233
e 152 255
e 153 39
e 153 133
e 153 213
e 153 242
e 153 270
e 153 280
e 154 57
e 154 61
e 154 137
e 154 162
e 154 171
e 154 245
e 155 66
e 155 115
e 155 127
e 155 150
e 155 194
e 155 215
e 156 40
e 156 44
e 156 84
e 156 87
e 156 170
e 156 236
e 157 90
e 157 91
e 157 119
e 157 122
e 157 194
e 157 253
e 158 32
e 158 62
e 158 74
e 158 136
e 158 165
e 158 210
e 159 78
e 159 114
e 159 149
e 159 196
e 159 210
e 159 234
e 160 40
e 160 99
e 160 156
e 160 156
e 160 194
e 160 250
e 161 34
e 161 57
e 161 224
e 161 269
e 161 275
e 161 287
e 162 41
e 162 46
e 162 58
e 162 59
e 162 78
e 162 172
e 163 49
e 163 82
e 163 162
e 163 224
e 163 251
e 163 291
e 164 65
e 164 76
e 164 143
e 164 201
e 164 247
e 164 255
e 165 90
e 165 95
e 165 220
e 165 225
e 165 245
e 165 260
e 166 39
e 166 70
e 166 152
e 166 257
e 166 277
e 166 284
e 167 34
e 167 120
e 167 144
e 167 205
e 167 237
e 167 257
e 168 12
e 168 67
e 168 76
e 168 113
e 168 140
e 168 182
e 169 30
e 169 32
e 169 69
e 169 93
e 169 103
e 169 123
e 170 3
e 170 75
e 170 97
e 170 108
e 170 119
e 170 217
e 171 74
e 171 78
e 171 84
e 171 173
e 171 184
e 171 188
e 172 48
e 172 226
e 172 234
e 172 258
e 172 263
e 172 298
e 173 19
e 173 27
e 173 54
e 173 97
e 173 142
e 173 258
e 174 1
e 174 49
e 174 75
e 174 86
e 174 94
e 174 181
e 175 60
e 175 130
e 175 206
e 175 231
e 175 239
e 175 299
e 176 20
e 176 63
e 176 125
e 176 161
e 176 181
e 176 276
e 177 11
e 177 27
e 177 42
e 177 103
e 177 163
e 177 281
e 178 9
e 178 41
e 178 84
e 178 212
e 178 224
e 178 290
e 179 39
e 179 158
e 179 205
e 179 211
e 179 232
e 179 294
e 180 6
e 180 21
e 180 91
e 180 92
e 180 114
e 180 263
e 181 14
e 181 22
e 181 71
e 181 130
e 181 139
e 181 268
e 182 72
e 182 181
e 182 196
e 182 200
e 182 244
e 182 296
e 183 55
e 183 71
e 183 125
e 183 187
e 183 270
e 183 289
e 184 11
e 184 22
e 184 31
e 184 133
e 184 174
e 184 270
e 185 188
e 185 195
e 185 234
e 185 260
e 185 264
e 185 280
e 186 150
e 186 165
e 186 224
e 186 240
e 186 252
e 186 300
e 187 43
e 187 116
e 187 131
e 187 150
e 187 191
e 187 287
e 188 82
e 188 112
e 188 116
e 188 135
e 188 174
e 188 187
e 189 34
e 189 88
e 189 123
e 189 165
e 189 174
e 189 288
e 190 143
e 190 144
e 190 145
e 190 155
e 190 220
e 190 255
e 191 52
e 191 119
e 191 140
e 191 160
e 191 164
e 191 225
e 192 5
e 192 6
e 192 13
e 192 54
e 192 144
e 192 170
e 193 20
e 193 34
e 193 100
e 193 135
e 193 216
e 193 253
e 194 36
e 194 51
e 194 61
e 194 154
e 194 170
e 194 188
e 195 38
e 195 158
e 195 163
e 195 203
e 195 288
e 195 290
e 196 6
e 196 105
e 196 211
e 196 212
e 196 219
e 196 261
e 197 17
e 197 30
e 197 104
e 197 158
e 197 193
e 197 286
e 198 121
e 198 123
e 198 144
e 198 180
e 198 206
e 198 222
e 199 1
e 199 94
e 199 148
e 199 229
e 199 262
e 199 279
e 200 29
e 200 52
e 200 100
e 200 183
e 200 188
e 200 246
e 201 27
e 201 87
e 201 243
e 201 249
e 201 254
e 201 290
e 202 7
e 202 8
e 202 93
e 202 237
e 202 267
e 202 295
e 203 21
e 203 87
e 203 122
e 203 165
e 203 181
e 203 218
e 204 24
e 204 55
e 204 67
e 204 110
e 204 138
e 204 295
e 205 118
e 205 132
e 205 151
e 205 213
e 205 234
e 205 285
e 206 9
e 206 57
e 206 66
e 206 116
e 206 118
e 206 210
e 207 46
e 207 72
e 207 96
e 207 123
e 207 170
e 207 232
e 208 60
e 208 96
e 208 102
e 208 170
e 208 177
e 208 284
e 209 26
e 209 41
e 209 72
e 209 122
e 209 144
e 209 153
e 210 28
e 210 92
e 210 167
e 210 190
e 210 206
e 210 273
e 211 13
e 211 79
e 211 142
e 211 151
e 211 197
e 211 225
e 212 14
e 212 34
e 212 71
e 212 100
e 212 187
e 212 214
e 213 42
e 213 104
e 213 116
e 213 143
e 213 195
e 213 269
e 214 4
e 214 64
e 214 138
e 214 240
e 214 291
e 214 299
e 215 32
e 215 114
e 215 203
e 215 229
e 215 240
e 215 269
e 216 5
e 216 55
e 216 72
e 216 84
e 216 147
e 216 258
e 217 96
e 217 122
e 217 141
e 217 169
e 217 226
e 217 239
e 218 26
e 218 33
e 218 73
e 218 135
e 218 227
e 218 259
e 219 46
e 219 56
e 219 73
e 219 153
e 219 247
e 219 257
e 220 4
e 220 12
e 220 62
e 220 84
e 220 161
e 220 240
e 221 17
e 221 126
e 221 149
e 221 240
e 221 243
e 221 275
e 222 31
e 222 68
e 222 95
e 222 197
e 222 245
e 222 251
e 223 20
e 223 58
e 223 114
e 223 193
e 223 251
e 223 261
e 224 33
e 224 80
e 224 83
e 224 177
e 224 193
e 224 291
e 225 36
e 225 91
e 225 108
e 225 196
e 225 254
e 225 299
e 226 142
e 226 171
e 226 238
e 226 241
e 226 277
e 226 298
e 227 1
e 227 54
e 227 93
e 227 102
e 227 184
e 227 285
e 228 41
e 228 64
e 228 167
e 228 210
e 228 240
e 228 297
e 229 65
e 229 105
e 229 136
e 229 174
e 229 207
e 229 211
e 230 52
e 230 124
e 230 150
e 230 152
e 230 231
e 230 287
e 231 3
e 231 5
e 231 87
e 231 140
e 231 266
e 231 278
e 232 8
e 232 48
e 232 126
e 232 160
e 232 280
e 232 292
e 233 7
e 233 32
e 233 32
e 233 162
e 233 220
e 233 285
e 234 28
e 234 120
e 234 129
e 234 213
e 234 254
e 234 295
e 235 2
e 235 69
e 235 88
e 235 144
e 235 182
e 235 224
e 236 40
e 236 189
e 236 209
e 236 239
e 236 244
e 236 295
e 237 81
e 237 187
e 237 219
e 237 221
e 237 273
e 237 299
e 238 53
e 238 64
e 238 96
e 238 111
e 238 199
e 238 261
e 239 51
e 239 67
e 239 80
e 239 143
e 239 206
e 239 299
e 240 67
e 240 73
e 240 179
e 240 226
e 240 228
e 240 254
e 241 149
e 241 217
e 241 244
e 241 248
e 241 273
e 241 298
e 242 13
e 242 78
e 242 87
e 242 160
e 242 195
e 242 201
e 243 33
e 243 154
e 243 204
e 243 236
e 243 240
e 243 298
e 244 8
e 244 16
e 244 150
e 244 155
e 244 252
e 244 299
e 245 4
e 245 82
e 245 107
e 245 162
e 245 226
e 245 235
e 246 164
e 246 223
e 246 229
e 246 234
e 246 285
e 246 298
e 247 18
e 247 82
e 247 115
e 247 116
e 247 161
e 247 186
e 248 30
e 248 101
e 248 198
e 248 201
e 248 209
e 248 298
e 249 17
e 249 66
e 249 80
e 249 114
e 249 150
e 249 235
e 250 15
e 250 66
e 250 76
e 250 87
e 250 186
e 250 268
e 251 79
e 251 193
e 251 217
e 251 227
e 251 230
e 251 231
e 252 47
e 252 116
e 252 167
e 252 170
e 252 210
e 252 253
e 253 29
e 253 34
e 253 148
e 253 196
e 253 277
e 253 280
e 254 27
e 254 101
e 254 126
e 254 163
e 254 214
e 254 287
e 255 64
e 255 101
e 255 118
e 255 130
e 255 209
e 255 298
e 256 41
e 256 117
e 256 183
e 256 245
e 256 249
e 256 276
e 257 19
e 257 21
e 257 195
e 257 227
e 257 266
e 257 297
e 258 54
e 258 135
e 258 147
e 258 171
e 258 209
e 258 300
e 259 43
e 259 87
e 259 96
e 259 104
e 259 133
e 259 263
e 260 8
e 260 35
e 260 43
e 260 170
e 260 211
e 260 235
e 261 125
e 261 128
e 261 197
e 261 216
e 261 285
e 261 297
e 262 103
e 262 152
e 262 162
e 262 166
e 262 217
e 262 283
e 263 88
e 263 203
e 263 229
e 263 238
e 263 244
e 263 262
e 264 76
e 264 89
e 264 180
e 264 221
e 264 261
e 264 282
e 265 25
e 265 142
e 265 156
e 265 194
e 265 229
e 265 236
e 266 26
e 266 163
e 266 171
e 266 197
e 266 209
e 266 243
e 267 67
e 267 112
e 267 116
e 267 164
e 267 201
e 267 277
e 268 33
e 268 145
e 268 151
e 268 191
e 268 235
e 268 288
e 269 17
e 269 95
e 269 134
e 269 140
e 269 194
e 269 281
e 270 14
e 270 55
e 270 94
e 270 183
e 270 198
e 270 245
e 271 24
e 271 52
e 271 138
e 271 139
e 271 252
e 271 276
e 272 12
e 272 67
e 272 69
e 272 74
e 272 166
e 272 182
e 273 114
e 273 153
e 273 236
e 273 278
e 273 284
e 273 300
e 274 115
e 274 147
e 274 170
e 274 208
e 274 222
e 274 265
e 275 41
e 275 42
e 275 73
e 275 92
e 275 124
e 275 212
e 276 58
e 276 137
e 276 188
e 276 240
e 276 245
e 276 294
e 277 15
e 277 21
e 277 72
e 277 82
e 277 139
e 277 272
e 278 19
e 278 86
e 278 97
e 278 135
e 278 165
e 278 184
e 279 25
e 279 68
e 279 68
e 279 201
e 279 275
e 279 298
e 280 58
e 280 133
e 280 136
e 280 172
e 280 234
e 280 291
e 281 93
e 281 130
e 281 224
e 281 227
e 281 250
e 281 291
e 282 48
e 282 150
e 282 168
e 282 223
e 282 230
e 282 236
e 283 13
e 283 40
e 283 69
e 283 141
e 283 156
e 283 244
e 284 67
e 284 137
e 284 161
e 284 226
e 284 230
e 284 254
e 285 5
e 285 21
e 285 53
e 285 88
e 285 92
e 285 158
e 286 22
e 286 74
e 286 141
e 286 184
e 286 198
e 286 227
e 287 79
e 287 124
e 287 129
e 287 206
e 287 228
e 287 270
e 288 21
e 288 164
e 288 171
e 288 199
e 288 203
e 288 228
e 289 68
e 289 117
e 289 122
e 289 134
e 289 161
e 289 284
e 290 24
e 290 75
e 290 136
e 290 183
e 290 212
e 290 293
e 291 63
e 291 70
e 291 154
e 291 209
e 291 264
e 291 269
e 292 69
e 292 130
e 292 161
e 292 277
e 292 296
e 292 299
e 293 110
e 293 113
e 293 155
e 293 188
e 293 204
e 293 274
e 294 58
e 294 82
e 294 89
e 294 124
e 294 130
e 294 174
e 295 43
e 295 113
e 295 245
e 295 281
e 295 297
e 295 300
e 296 48
e 296 56
e 296 110
e 296 155
e 296 235
e 296 267
e 297 60
e 297 143
e 297 174
e 297 226
e 297 235
e 297 282
e 298 2
e 298 132
e 298 139
e 298 172
e 298 214
e 298 259
e 299 23
e 299 156
e 299 200
e 299 262
e 299 262
e 299 285
e 300 24
e 300 72
e 300 81
e 300 191
e 300 204
e 300 274
